data;
set BUSES := a1 a2 a3 a4 a5 a6 a7 a8 a9 a10 a11 a12 a13 a14 a15 a16 a17 a18 a19 a20 a21 a22 a23 a24 a25 a26 a27 a28 a29 a30 a31 a32 a33 a34 a35 a36 a37 a38 a39 a40 a41 a42 a43 a44 a45 a46 a47 a48 a49 a50 a51 a52 a53 a54 a55 a56 a57 a58 a59 a60 a61 a62 a63 a64 a65 a66 a67 a68 a69 a70 a71 a72 a73 a74 a75 a76 a77 a78 a79 a80 a81 a82 a83 a84 a85 a86 a87 a88 a89 a90 a91 a92 a93 a94 a95 a96 a97 a98 a99 a100 a101 a102 a103 a104 a105 a106 a107 a108 a109 a110 a111 a112 a113 a114 a115 a116 a117 a118 a119 a120 a121 a122 a123 a124 a125 a126 a127 a128 a129 a130 a131 a132 a133 a134 a135 a136 a137 a138 a139 a140 a141 a142 a143 a144 a145 a146 a147 a148 a149 a150 a151 a152 a153 a154 a155 a156 a157 a158 a159 a160 a161 a162 a163 a164 a165 a166 a167 a168 a169 a170 a171 a172 a173 a174 a175 a176 a177 a178 a179 a180 a181 a182 a183 a184 a185 a186 a187 a188 a189 a190 a191 a192 a193 a194 a195 a196 a197 a198 a199 a200 a201 a202 a203 a204 a205 a206 a207 a208 a209 a210 a211 a212 a213 a214 a215 a216 a217 a218 a219 a220 a221 a222 a223 a224 a225 a226 a227 a228 a229 a230 a231 a232 a233 a234 a235 a236 a237 a238 a239 a240 a241 a242 a243 a244 a245 a246 a247 a248 a249 a250 a251 a252 a253 a254 a255 a256 a257 a258 a259 a260 a261 a262 a263 a264 a265 a266 a267 a268 a269 a270 a271 a272 a273 a274 a275 a276 a277 a278 a279 a280 a281 a282 a283 a284 a285 a286 a287 a288 a289 a290 a291 a292 a293 a294 a295 a296 a297 a298 a299 a300 a301 a302 a303 a304 a305 a306 a307 a308 a309 a310 a311 a312 a313 a314 a315 a316 a317 a318 a319 a320 a321 a322 a323 a324 a325 a326 a327 a328 a329 a330 a331 a332 a333 a334 a335 a336 a337 a338 a339 a340 a341 a342 a343 a344 a345 a346 a347 a348 a349 a350 a351 a352 a353 a354 a355 a356 a357 a358 a359 a360 a361 a362 a363 a364 a365 a366 a367 a368 a369 a370 a371 a372 a373 a374 a375 a376 a377 a378 a379 a380 a381 a382 a383 a384 a385 a386 a387 a388 a389 a390 a391 a392 a393 a394 a395 a396 a397 a398 a399 a400 a401 a402 a403 a404 a405 a406 a407 a408 a409 a410 a411 a412 a413 a414 a415 a416 a417 a418 a419 a420 a421 a422 a423 a424 a425 a426 a427 a428 a429 a430 a431 a432 a433 a434 a435 a436 a437 a438 a439 a440 a441 a442 a443 a444 a445 a446 a447 a448 a449 a450 a451 a452 a453 a454 a455 a456 a457 a458 a459 a460 a461 a462 a463 a464 a465 a466 a467 a468 a469 a470 a471 a472 a473 a474 a475 a476 a477 a478 a479 a480 a481 a482 a483 a484 a485 a486 a487 a488 a489 a490 a491 a492 a493 a494 a495 a496 a497 a498 a499 a500 a501 a502 a503 a504 a505 a506 a507 a508 a509 a510 a511 a512 a513 a514 a515 a516 a517 a518 a519 a520 a521 a522 a523 a524 a525 a526 a527 a528 a529 a530 a531 a532 a533 a534 a535 a536 a537 a538 a539 a540 a541 a542 a543 a544 a545 a546 a547 a548 a549 a550 a551 a552 a553 a554 a555 a556 a557 a558 a559 a560 a561 a562 a563 a564 a565 a566 a567 a568 a569 a570 a571 a572 a573 a574 a575 a576 a577 a578 a579 a580 a581 a582 a583 a584 a585 a586 a587 a588 a589 a590 a591 a592 a593 a594 a595 a596 a597 a598 a599 a600;
set FRANJAS := s1 s2 s3 s4 s5 s6 s7 s8 s9 s10 s11 s12 s13 s14 s15 s16 s17 s18 s19 s20;

param kd := 1.5;
param kp := 0.75;

param d :=
a1 18.0
a2 55.0
a3 31.0
a4 7.0
a5 44.0
a6 20.0
a7 57.0
a8 33.0
a9 9.0
a10 46.0
a11 22.0
a12 59.0
a13 35.0
a14 11.0
a15 48.0
a16 24.0
a17 61.0
a18 37.0
a19 13.0
a20 50.0
a21 26.0
a22 63.0
a23 39.0
a24 15.0
a25 52.0
a26 28.0
a27 65.0
a28 41.0
a29 17.0
a30 54.0
a31 30.0
a32 6.0
a33 43.0
a34 19.0
a35 56.0
a36 32.0
a37 8.0
a38 45.0
a39 21.0
a40 58.0
a41 34.0
a42 10.0
a43 47.0
a44 23.0
a45 60.0
a46 36.0
a47 12.0
a48 49.0
a49 25.0
a50 62.0
a51 38.0
a52 14.0
a53 51.0
a54 27.0
a55 64.0
a56 40.0
a57 16.0
a58 53.0
a59 29.0
a60 5.0
a61 42.0
a62 18.0
a63 55.0
a64 31.0
a65 7.0
a66 44.0
a67 20.0
a68 57.0
a69 33.0
a70 9.0
a71 46.0
a72 22.0
a73 59.0
a74 35.0
a75 11.0
a76 48.0
a77 24.0
a78 61.0
a79 37.0
a80 13.0
a81 50.0
a82 26.0
a83 63.0
a84 39.0
a85 15.0
a86 52.0
a87 28.0
a88 65.0
a89 41.0
a90 17.0
a91 54.0
a92 30.0
a93 6.0
a94 43.0
a95 19.0
a96 56.0
a97 32.0
a98 8.0
a99 45.0
a100 21.0
a101 58.0
a102 34.0
a103 10.0
a104 47.0
a105 23.0
a106 60.0
a107 36.0
a108 12.0
a109 49.0
a110 25.0
a111 62.0
a112 38.0
a113 14.0
a114 51.0
a115 27.0
a116 64.0
a117 40.0
a118 16.0
a119 53.0
a120 29.0
a121 5.0
a122 42.0
a123 18.0
a124 55.0
a125 31.0
a126 7.0
a127 44.0
a128 20.0
a129 57.0
a130 33.0
a131 9.0
a132 46.0
a133 22.0
a134 59.0
a135 35.0
a136 11.0
a137 48.0
a138 24.0
a139 61.0
a140 37.0
a141 13.0
a142 50.0
a143 26.0
a144 63.0
a145 39.0
a146 15.0
a147 52.0
a148 28.0
a149 65.0
a150 41.0
a151 17.0
a152 54.0
a153 30.0
a154 6.0
a155 43.0
a156 19.0
a157 56.0
a158 32.0
a159 8.0
a160 45.0
a161 21.0
a162 58.0
a163 34.0
a164 10.0
a165 47.0
a166 23.0
a167 60.0
a168 36.0
a169 12.0
a170 49.0
a171 25.0
a172 62.0
a173 38.0
a174 14.0
a175 51.0
a176 27.0
a177 64.0
a178 40.0
a179 16.0
a180 53.0
a181 29.0
a182 5.0
a183 42.0
a184 18.0
a185 55.0
a186 31.0
a187 7.0
a188 44.0
a189 20.0
a190 57.0
a191 33.0
a192 9.0
a193 46.0
a194 22.0
a195 59.0
a196 35.0
a197 11.0
a198 48.0
a199 24.0
a200 61.0
a201 37.0
a202 13.0
a203 50.0
a204 26.0
a205 63.0
a206 39.0
a207 15.0
a208 52.0
a209 28.0
a210 65.0
a211 41.0
a212 17.0
a213 54.0
a214 30.0
a215 6.0
a216 43.0
a217 19.0
a218 56.0
a219 32.0
a220 8.0
a221 45.0
a222 21.0
a223 58.0
a224 34.0
a225 10.0
a226 47.0
a227 23.0
a228 60.0
a229 36.0
a230 12.0
a231 49.0
a232 25.0
a233 62.0
a234 38.0
a235 14.0
a236 51.0
a237 27.0
a238 64.0
a239 40.0
a240 16.0
a241 53.0
a242 29.0
a243 5.0
a244 42.0
a245 18.0
a246 55.0
a247 31.0
a248 7.0
a249 44.0
a250 20.0
a251 57.0
a252 33.0
a253 9.0
a254 46.0
a255 22.0
a256 59.0
a257 35.0
a258 11.0
a259 48.0
a260 24.0
a261 61.0
a262 37.0
a263 13.0
a264 50.0
a265 26.0
a266 63.0
a267 39.0
a268 15.0
a269 52.0
a270 28.0
a271 65.0
a272 41.0
a273 17.0
a274 54.0
a275 30.0
a276 6.0
a277 43.0
a278 19.0
a279 56.0
a280 32.0
a281 8.0
a282 45.0
a283 21.0
a284 58.0
a285 34.0
a286 10.0
a287 47.0
a288 23.0
a289 60.0
a290 36.0
a291 12.0
a292 49.0
a293 25.0
a294 62.0
a295 38.0
a296 14.0
a297 51.0
a298 27.0
a299 64.0
a300 40.0
a301 16.0
a302 53.0
a303 29.0
a304 5.0
a305 42.0
a306 18.0
a307 55.0
a308 31.0
a309 7.0
a310 44.0
a311 20.0
a312 57.0
a313 33.0
a314 9.0
a315 46.0
a316 22.0
a317 59.0
a318 35.0
a319 11.0
a320 48.0
a321 24.0
a322 61.0
a323 37.0
a324 13.0
a325 50.0
a326 26.0
a327 63.0
a328 39.0
a329 15.0
a330 52.0
a331 28.0
a332 65.0
a333 41.0
a334 17.0
a335 54.0
a336 30.0
a337 6.0
a338 43.0
a339 19.0
a340 56.0
a341 32.0
a342 8.0
a343 45.0
a344 21.0
a345 58.0
a346 34.0
a347 10.0
a348 47.0
a349 23.0
a350 60.0
a351 36.0
a352 12.0
a353 49.0
a354 25.0
a355 62.0
a356 38.0
a357 14.0
a358 51.0
a359 27.0
a360 64.0
a361 40.0
a362 16.0
a363 53.0
a364 29.0
a365 5.0
a366 42.0
a367 18.0
a368 55.0
a369 31.0
a370 7.0
a371 44.0
a372 20.0
a373 57.0
a374 33.0
a375 9.0
a376 46.0
a377 22.0
a378 59.0
a379 35.0
a380 11.0
a381 48.0
a382 24.0
a383 61.0
a384 37.0
a385 13.0
a386 50.0
a387 26.0
a388 63.0
a389 39.0
a390 15.0
a391 52.0
a392 28.0
a393 65.0
a394 41.0
a395 17.0
a396 54.0
a397 30.0
a398 6.0
a399 43.0
a400 19.0
a401 56.0
a402 32.0
a403 8.0
a404 45.0
a405 21.0
a406 58.0
a407 34.0
a408 10.0
a409 47.0
a410 23.0
a411 60.0
a412 36.0
a413 12.0
a414 49.0
a415 25.0
a416 62.0
a417 38.0
a418 14.0
a419 51.0
a420 27.0
a421 64.0
a422 40.0
a423 16.0
a424 53.0
a425 29.0
a426 5.0
a427 42.0
a428 18.0
a429 55.0
a430 31.0
a431 7.0
a432 44.0
a433 20.0
a434 57.0
a435 33.0
a436 9.0
a437 46.0
a438 22.0
a439 59.0
a440 35.0
a441 11.0
a442 48.0
a443 24.0
a444 61.0
a445 37.0
a446 13.0
a447 50.0
a448 26.0
a449 63.0
a450 39.0
a451 15.0
a452 52.0
a453 28.0
a454 65.0
a455 41.0
a456 17.0
a457 54.0
a458 30.0
a459 6.0
a460 43.0
a461 19.0
a462 56.0
a463 32.0
a464 8.0
a465 45.0
a466 21.0
a467 58.0
a468 34.0
a469 10.0
a470 47.0
a471 23.0
a472 60.0
a473 36.0
a474 12.0
a475 49.0
a476 25.0
a477 62.0
a478 38.0
a479 14.0
a480 51.0
a481 27.0
a482 64.0
a483 40.0
a484 16.0
a485 53.0
a486 29.0
a487 5.0
a488 42.0
a489 18.0
a490 55.0
a491 31.0
a492 7.0
a493 44.0
a494 20.0
a495 57.0
a496 33.0
a497 9.0
a498 46.0
a499 22.0
a500 59.0
a501 35.0
a502 11.0
a503 48.0
a504 24.0
a505 61.0
a506 37.0
a507 13.0
a508 50.0
a509 26.0
a510 63.0
a511 39.0
a512 15.0
a513 52.0
a514 28.0
a515 65.0
a516 41.0
a517 17.0
a518 54.0
a519 30.0
a520 6.0
a521 43.0
a522 19.0
a523 56.0
a524 32.0
a525 8.0
a526 45.0
a527 21.0
a528 58.0
a529 34.0
a530 10.0
a531 47.0
a532 23.0
a533 60.0
a534 36.0
a535 12.0
a536 49.0
a537 25.0
a538 62.0
a539 38.0
a540 14.0
a541 51.0
a542 27.0
a543 64.0
a544 40.0
a545 16.0
a546 53.0
a547 29.0
a548 5.0
a549 42.0
a550 18.0
a551 55.0
a552 31.0
a553 7.0
a554 44.0
a555 20.0
a556 57.0
a557 33.0
a558 9.0
a559 46.0
a560 22.0
a561 59.0
a562 35.0
a563 11.0
a564 48.0
a565 24.0
a566 61.0
a567 37.0
a568 13.0
a569 50.0
a570 26.0
a571 63.0
a572 39.0
a573 15.0
a574 52.0
a575 28.0
a576 65.0
a577 41.0
a578 17.0
a579 54.0
a580 30.0
a581 6.0
a582 43.0
a583 19.0
a584 56.0
a585 32.0
a586 8.0
a587 45.0
a588 21.0
a589 58.0
a590 34.0
a591 10.0
a592 47.0
a593 23.0
a594 60.0
a595 36.0
a596 12.0
a597 49.0
a598 25.0
a599 62.0
a600 38.0;

param p :=
a1 39.0
a2 56.0
a3 73.0
a4 90.0
a5 107.0
a6 13.0
a7 30.0
a8 47.0
a9 64.0
a10 81.0
a11 98.0
a12 115.0
a13 21.0
a14 38.0
a15 55.0
a16 72.0
a17 89.0
a18 106.0
a19 12.0
a20 29.0
a21 46.0
a22 63.0
a23 80.0
a24 97.0
a25 114.0
a26 20.0
a27 37.0
a28 54.0
a29 71.0
a30 88.0
a31 105.0
a32 11.0
a33 28.0
a34 45.0
a35 62.0
a36 79.0
a37 96.0
a38 113.0
a39 19.0
a40 36.0
a41 53.0
a42 70.0
a43 87.0
a44 104.0
a45 10.0
a46 27.0
a47 44.0
a48 61.0
a49 78.0
a50 95.0
a51 112.0
a52 18.0
a53 35.0
a54 52.0
a55 69.0
a56 86.0
a57 103.0
a58 120.0
a59 26.0
a60 43.0
a61 60.0
a62 77.0
a63 94.0
a64 111.0
a65 17.0
a66 34.0
a67 51.0
a68 68.0
a69 85.0
a70 102.0
a71 119.0
a72 25.0
a73 42.0
a74 59.0
a75 76.0
a76 93.0
a77 110.0
a78 16.0
a79 33.0
a80 50.0
a81 67.0
a82 84.0
a83 101.0
a84 118.0
a85 24.0
a86 41.0
a87 58.0
a88 75.0
a89 92.0
a90 109.0
a91 15.0
a92 32.0
a93 49.0
a94 66.0
a95 83.0
a96 100.0
a97 117.0
a98 23.0
a99 40.0
a100 57.0
a101 74.0
a102 91.0
a103 108.0
a104 14.0
a105 31.0
a106 48.0
a107 65.0
a108 82.0
a109 99.0
a110 116.0
a111 22.0
a112 39.0
a113 56.0
a114 73.0
a115 90.0
a116 107.0
a117 13.0
a118 30.0
a119 47.0
a120 64.0
a121 81.0
a122 98.0
a123 115.0
a124 21.0
a125 38.0
a126 55.0
a127 72.0
a128 89.0
a129 106.0
a130 12.0
a131 29.0
a132 46.0
a133 63.0
a134 80.0
a135 97.0
a136 114.0
a137 20.0
a138 37.0
a139 54.0
a140 71.0
a141 88.0
a142 105.0
a143 11.0
a144 28.0
a145 45.0
a146 62.0
a147 79.0
a148 96.0
a149 113.0
a150 19.0
a151 36.0
a152 53.0
a153 70.0
a154 87.0
a155 104.0
a156 10.0
a157 27.0
a158 44.0
a159 61.0
a160 78.0
a161 95.0
a162 112.0
a163 18.0
a164 35.0
a165 52.0
a166 69.0
a167 86.0
a168 103.0
a169 120.0
a170 26.0
a171 43.0
a172 60.0
a173 77.0
a174 94.0
a175 111.0
a176 17.0
a177 34.0
a178 51.0
a179 68.0
a180 85.0
a181 102.0
a182 119.0
a183 25.0
a184 42.0
a185 59.0
a186 76.0
a187 93.0
a188 110.0
a189 16.0
a190 33.0
a191 50.0
a192 67.0
a193 84.0
a194 101.0
a195 118.0
a196 24.0
a197 41.0
a198 58.0
a199 75.0
a200 92.0
a201 109.0
a202 15.0
a203 32.0
a204 49.0
a205 66.0
a206 83.0
a207 100.0
a208 117.0
a209 23.0
a210 40.0
a211 57.0
a212 74.0
a213 91.0
a214 108.0
a215 14.0
a216 31.0
a217 48.0
a218 65.0
a219 82.0
a220 99.0
a221 116.0
a222 22.0
a223 39.0
a224 56.0
a225 73.0
a226 90.0
a227 107.0
a228 13.0
a229 30.0
a230 47.0
a231 64.0
a232 81.0
a233 98.0
a234 115.0
a235 21.0
a236 38.0
a237 55.0
a238 72.0
a239 89.0
a240 106.0
a241 12.0
a242 29.0
a243 46.0
a244 63.0
a245 80.0
a246 97.0
a247 114.0
a248 20.0
a249 37.0
a250 54.0
a251 71.0
a252 88.0
a253 105.0
a254 11.0
a255 28.0
a256 45.0
a257 62.0
a258 79.0
a259 96.0
a260 113.0
a261 19.0
a262 36.0
a263 53.0
a264 70.0
a265 87.0
a266 104.0
a267 10.0
a268 27.0
a269 44.0
a270 61.0
a271 78.0
a272 95.0
a273 112.0
a274 18.0
a275 35.0
a276 52.0
a277 69.0
a278 86.0
a279 103.0
a280 120.0
a281 26.0
a282 43.0
a283 60.0
a284 77.0
a285 94.0
a286 111.0
a287 17.0
a288 34.0
a289 51.0
a290 68.0
a291 85.0
a292 102.0
a293 119.0
a294 25.0
a295 42.0
a296 59.0
a297 76.0
a298 93.0
a299 110.0
a300 16.0
a301 33.0
a302 50.0
a303 67.0
a304 84.0
a305 101.0
a306 118.0
a307 24.0
a308 41.0
a309 58.0
a310 75.0
a311 92.0
a312 109.0
a313 15.0
a314 32.0
a315 49.0
a316 66.0
a317 83.0
a318 100.0
a319 117.0
a320 23.0
a321 40.0
a322 57.0
a323 74.0
a324 91.0
a325 108.0
a326 14.0
a327 31.0
a328 48.0
a329 65.0
a330 82.0
a331 99.0
a332 116.0
a333 22.0
a334 39.0
a335 56.0
a336 73.0
a337 90.0
a338 107.0
a339 13.0
a340 30.0
a341 47.0
a342 64.0
a343 81.0
a344 98.0
a345 115.0
a346 21.0
a347 38.0
a348 55.0
a349 72.0
a350 89.0
a351 106.0
a352 12.0
a353 29.0
a354 46.0
a355 63.0
a356 80.0
a357 97.0
a358 114.0
a359 20.0
a360 37.0
a361 54.0
a362 71.0
a363 88.0
a364 105.0
a365 11.0
a366 28.0
a367 45.0
a368 62.0
a369 79.0
a370 96.0
a371 113.0
a372 19.0
a373 36.0
a374 53.0
a375 70.0
a376 87.0
a377 104.0
a378 10.0
a379 27.0
a380 44.0
a381 61.0
a382 78.0
a383 95.0
a384 112.0
a385 18.0
a386 35.0
a387 52.0
a388 69.0
a389 86.0
a390 103.0
a391 120.0
a392 26.0
a393 43.0
a394 60.0
a395 77.0
a396 94.0
a397 111.0
a398 17.0
a399 34.0
a400 51.0
a401 68.0
a402 85.0
a403 102.0
a404 119.0
a405 25.0
a406 42.0
a407 59.0
a408 76.0
a409 93.0
a410 110.0
a411 16.0
a412 33.0
a413 50.0
a414 67.0
a415 84.0
a416 101.0
a417 118.0
a418 24.0
a419 41.0
a420 58.0
a421 75.0
a422 92.0
a423 109.0
a424 15.0
a425 32.0
a426 49.0
a427 66.0
a428 83.0
a429 100.0
a430 117.0
a431 23.0
a432 40.0
a433 57.0
a434 74.0
a435 91.0
a436 108.0
a437 14.0
a438 31.0
a439 48.0
a440 65.0
a441 82.0
a442 99.0
a443 116.0
a444 22.0
a445 39.0
a446 56.0
a447 73.0
a448 90.0
a449 107.0
a450 13.0
a451 30.0
a452 47.0
a453 64.0
a454 81.0
a455 98.0
a456 115.0
a457 21.0
a458 38.0
a459 55.0
a460 72.0
a461 89.0
a462 106.0
a463 12.0
a464 29.0
a465 46.0
a466 63.0
a467 80.0
a468 97.0
a469 114.0
a470 20.0
a471 37.0
a472 54.0
a473 71.0
a474 88.0
a475 105.0
a476 11.0
a477 28.0
a478 45.0
a479 62.0
a480 79.0
a481 96.0
a482 113.0
a483 19.0
a484 36.0
a485 53.0
a486 70.0
a487 87.0
a488 104.0
a489 10.0
a490 27.0
a491 44.0
a492 61.0
a493 78.0
a494 95.0
a495 112.0
a496 18.0
a497 35.0
a498 52.0
a499 69.0
a500 86.0
a501 103.0
a502 120.0
a503 26.0
a504 43.0
a505 60.0
a506 77.0
a507 94.0
a508 111.0
a509 17.0
a510 34.0
a511 51.0
a512 68.0
a513 85.0
a514 102.0
a515 119.0
a516 25.0
a517 42.0
a518 59.0
a519 76.0
a520 93.0
a521 110.0
a522 16.0
a523 33.0
a524 50.0
a525 67.0
a526 84.0
a527 101.0
a528 118.0
a529 24.0
a530 41.0
a531 58.0
a532 75.0
a533 92.0
a534 109.0
a535 15.0
a536 32.0
a537 49.0
a538 66.0
a539 83.0
a540 100.0
a541 117.0
a542 23.0
a543 40.0
a544 57.0
a545 74.0
a546 91.0
a547 108.0
a548 14.0
a549 31.0
a550 48.0
a551 65.0
a552 82.0
a553 99.0
a554 116.0
a555 22.0
a556 39.0
a557 56.0
a558 73.0
a559 90.0
a560 107.0
a561 13.0
a562 30.0
a563 47.0
a564 64.0
a565 81.0
a566 98.0
a567 115.0
a568 21.0
a569 38.0
a570 55.0
a571 72.0
a572 89.0
a573 106.0
a574 12.0
a575 29.0
a576 46.0
a577 63.0
a578 80.0
a579 97.0
a580 114.0
a581 20.0
a582 37.0
a583 54.0
a584 71.0
a585 88.0
a586 105.0
a587 11.0
a588 28.0
a589 45.0
a590 62.0
a591 79.0
a592 96.0
a593 113.0
a594 19.0
a595 36.0
a596 53.0
a597 70.0
a598 87.0
a599 104.0
a600 10.0;

end;
